
Gurobi 6.5.2 (linux64) logging started Thu Sep 29 08:14:47 2016


Gurobi 6.5.2 (linux64) logging started Thu Sep 29 08:16:28 2016


Gurobi 6.5.2 (linux64) logging started Thu Sep 29 08:17:47 2016


Gurobi 6.5.2 (linux64) logging started Thu Sep 29 08:18:57 2016


Gurobi 6.5.2 (linux64) logging started Thu Sep 29 08:20:28 2016


Gurobi 6.5.2 (linux64) logging started Thu Sep 29 08:21:11 2016


Gurobi 6.5.2 (linux64) logging started Thu Sep 29 08:36:37 2016


Gurobi 6.5.2 (linux64) logging started Thu Sep 29 17:06:08 2016


Gurobi 6.5.2 (linux64) logging started Thu Sep 29 17:06:48 2016

